NAME : S51D1
COMMENT : (Martinez, Min no of trucks: 3, Best value: 458)
TYPE : SDVRP
DIMENSION : 51
EDGE_WEIGHT_TYPE : EUC_2D
CAPACITY : 160
NODE_COORD_SECTION
1 30 40
2 37 52
3 49 49
4 52 64
5 20 26
6 40 30
7 21 47
8 17 63
9 31 62
10 52 33
11 51 21
12 42 41
13 31 32
14 5 25
15 12 42
16 36 16
17 52 41
18 27 23
19 17 33
20 13 13
21 57 58
22 62 42
23 42 57
24 16 57
25 8 52
26 7 38
27 27 68
28 30 48
29 43 67
30 58 48
31 58 27
32 37 69
33 38 46
34 46 10
35 61 33
36 62 63
37 63 69
38 32 22
39 45 35
40 59 15
41 5 6
42 10 17
43 21 10
44 5 64
45 30 15
46 39 10
47 32 39
48 25 32
49 25 55
50 48 28
51 56 37
DEMAND_SECTION
1 0
2 3
3 4
4 5
5 14
6 2
7 5
8 5
9 9
10 2
11 10
12 5
13 4
14 2
15 14
16 4
17 5
18 3
19 15
20 4
21 10
22 3
23 14
24 2
25 13
26 3
27 10
28 3
29 15
30 4
31 4
32 5
33 15
34 4
35 5
36 8
37 15
38 5
39 10
40 10
41 13
42 6
43 14
44 13
45 11
46 8
47 15
48 15
49 10
50 9
51 15
DEPOT_SECTION
1
EOF
